

(declare-sort |dff_s| 0)
(declare-fun |dff_is| (|dff_s|) Bool)
(declare-fun |dff#0| (|dff_s|) Bool) 


(define-fun |dff_n CK| ((state |dff_s|)) Bool (|dff#0| state))
(declare-fun |dff#1| (|dff_s|) Bool) 


(define-fun |dff_n D| ((state |dff_s|)) Bool (|dff#1| state))
(define-fun |dff#2| ((state |dff_s|)) (_ BitVec 1) (bvnot (ite (|dff#0| state) #b1 #b0))) 
(define-fun |dff#3| ((state |dff_s|)) (_ BitVec 1) (ite (|dff#1| state) (|dff#2| state) #b0)) 
(define-fun |dff#4| ((state |dff_s|)) (_ BitVec 1) (ite (= ((_ extract 0 0) (|dff#3| state)) #b1) #b0 (ite (|dff#0| state) #b1 #b0))) 
(define-fun |dff#5| ((state |dff_s|)) (_ BitVec 1) (bvnot (|dff#4| state))) 

(define-fun |dff_n Q| ((state |dff_s|)) Bool (= ((_ extract 0 0) (|dff#5| state)) #b1))
(define-fun |dff_a| ((state |dff_s|)) Bool true)
(define-fun |dff_u| ((state |dff_s|)) Bool true)
(define-fun |dff_i| ((state |dff_s|)) Bool true)
(define-fun |dff_h| ((state |dff_s|)) Bool true)
(define-fun |dff_t| ((state |dff_s|) (next_state |dff_s|)) Bool true) 

(declare-sort |s298_s| 0)
(declare-fun |s298_is| (|s298_s|) Bool)
(declare-fun |s298#0| (|s298_s|) Bool) 


(define-fun |s298_n CK| ((state |s298_s|)) Bool (|s298#0| state))
(declare-fun |s298#1| (|s298_s|) Bool) 


(define-fun |s298_n G0| ((state |s298_s|)) Bool (|s298#1| state))
(declare-fun |s298#2| (|s298_s|) Bool) 


(define-fun |s298_n G1| ((state |s298_s|)) Bool (|s298#2| state))


(declare-fun |s298#3| (|s298_s|) Bool) 
(declare-fun |s298_h DFF_8| (|s298_s|) |dff_s|)

(define-fun |s298_n G117| ((state |s298_s|)) Bool (|s298#3| state))


(declare-fun |s298#4| (|s298_s|) Bool) 
(declare-fun |s298_h DFF_9| (|s298_s|) |dff_s|)

(define-fun |s298_n G118| ((state |s298_s|)) Bool (|s298#4| state))


(declare-fun |s298#5| (|s298_s|) Bool) 
(declare-fun |s298_h DFF_10| (|s298_s|) |dff_s|)

(define-fun |s298_n G132| ((state |s298_s|)) Bool (|s298#5| state))


(declare-fun |s298#6| (|s298_s|) Bool) 
(declare-fun |s298_h DFF_11| (|s298_s|) |dff_s|)

(define-fun |s298_n G133| ((state |s298_s|)) Bool (|s298#6| state))
(declare-fun |s298#7| (|s298_s|) Bool) 


(define-fun |s298_n G2| ((state |s298_s|)) Bool (|s298#7| state))


(declare-fun |s298#8| (|s298_s|) Bool) 
(declare-fun |s298_h DFF_6| (|s298_s|) |dff_s|)

(define-fun |s298_n G66| ((state |s298_s|)) Bool (|s298#8| state))


(declare-fun |s298#9| (|s298_s|) Bool) 
(declare-fun |s298_h DFF_7| (|s298_s|) |dff_s|)

(define-fun |s298_n G67| ((state |s298_s|)) Bool (|s298#9| state))
(declare-fun |s298#10| (|s298_s|) Bool) 


(define-fun |s298_n GND| ((state |s298_s|)) Bool (|s298#10| state))
(declare-fun |s298#11| (|s298_s|) Bool) 


(define-fun |s298_n VDD| ((state |s298_s|)) Bool (|s298#11| state))


(declare-fun |s298#12| (|s298_s|) Bool) 
(declare-fun |s298_h DFF_0| (|s298_s|) |dff_s|)


(declare-fun |s298#13| (|s298_s|) Bool) 
(declare-fun |s298_h DFF_1| (|s298_s|) |dff_s|)


(declare-fun |s298#14| (|s298_s|) Bool) 
(declare-fun |s298_h DFF_12| (|s298_s|) |dff_s|)


(declare-fun |s298#15| (|s298_s|) Bool) 
(declare-fun |s298_h DFF_13| (|s298_s|) |dff_s|)


(declare-fun |s298#16| (|s298_s|) Bool) 
(declare-fun |s298_h DFF_2| (|s298_s|) |dff_s|)


(declare-fun |s298#17| (|s298_s|) Bool) 
(declare-fun |s298_h DFF_3| (|s298_s|) |dff_s|)


(declare-fun |s298#18| (|s298_s|) Bool) 
(declare-fun |s298_h DFF_4| (|s298_s|) |dff_s|)


(declare-fun |s298#19| (|s298_s|) Bool) 
(declare-fun |s298_h DFF_5| (|s298_s|) |dff_s|)
(define-fun |s298#20| ((state |s298_s|)) (_ BitVec 1) (bvor (ite (|s298#12| state) #b1 #b0) (ite (|s298#1| state) #b1 #b0))) 
(define-fun |s298#21| ((state |s298_s|)) (_ BitVec 1) (bvnot (|s298#20| state))) 
(define-fun |s298#22| ((state |s298_s|)) (_ BitVec 1) (bvand (ite (|s298#12| state) #b1 #b0) (ite (|s298#13| state) #b1 #b0))) 
(define-fun |s298#23| ((state |s298_s|)) (_ BitVec 1) (bvand (|s298#22| state) (ite (|s298#16| state) #b1 #b0))) 
(define-fun |s298#24| ((state |s298_s|)) (_ BitVec 1) (bvnot (ite (|s298#12| state) #b1 #b0))) 
(define-fun |s298#25| ((state |s298_s|)) (_ BitVec 1) (bvnot (ite (|s298#16| state) #b1 #b0))) 
(define-fun |s298#26| ((state |s298_s|)) (_ BitVec 1) (bvand (|s298#24| state) (|s298#25| state))) 
(define-fun |s298#27| ((state |s298_s|)) (_ BitVec 1) (bvor (|s298#23| state) (|s298#26| state))) 
(define-fun |s298#28| ((state |s298_s|)) (_ BitVec 1) (bvnot (ite (|s298#13| state) #b1 #b0))) 
(define-fun |s298#29| ((state |s298_s|)) (_ BitVec 1) (bvand (|s298#25| state) (|s298#28| state))) 
(define-fun |s298#30| ((state |s298_s|)) (_ BitVec 1) (bvor (|s298#27| state) (|s298#29| state))) 
(define-fun |s298#31| ((state |s298_s|)) (_ BitVec 1) (bvor (|s298#30| state) (ite (|s298#1| state) #b1 #b0))) 
(define-fun |s298#32| ((state |s298_s|)) (_ BitVec 1) (bvnot (|s298#31| state))) 
(define-fun |s298#33| ((state |s298_s|)) (_ BitVec 1) (bvnot (ite (|s298#17| state) #b1 #b0))) 
(define-fun |s298#34| ((state |s298_s|)) (_ BitVec 1) (bvand (ite (|s298#16| state) #b1 #b0) (ite (|s298#13| state) #b1 #b0))) 
(define-fun |s298#35| ((state |s298_s|)) (_ BitVec 1) (bvand (|s298#34| state) (ite (|s298#12| state) #b1 #b0))) 
(define-fun |s298#36| ((state |s298_s|)) (_ BitVec 1) (bvnot (|s298#35| state))) 
(define-fun |s298#37| ((state |s298_s|)) (_ BitVec 1) (bvand (|s298#33| state) (|s298#36| state))) 
(define-fun |s298#38| ((state |s298_s|)) (_ BitVec 1) (bvor (|s298#24| state) (|s298#28| state))) 
(define-fun |s298#39| ((state |s298_s|)) (_ BitVec 1) (bvor (|s298#38| state) (|s298#25| state))) 
(define-fun |s298#40| ((state |s298_s|)) (_ BitVec 1) (bvor (|s298#39| state) (|s298#33| state))) 
(define-fun |s298#41| ((state |s298_s|)) (_ BitVec 1) (bvor (|s298#24| state) (ite (|s298#13| state) #b1 #b0))) 
(define-fun |s298#42| ((state |s298_s|)) (_ BitVec 1) (bvor (|s298#41| state) (ite (|s298#16| state) #b1 #b0))) 
(define-fun |s298#43| ((state |s298_s|)) (_ BitVec 1) (bvand (|s298#40| state) (|s298#42| state))) 
(define-fun |s298#44| ((state |s298_s|)) (_ BitVec 1) (bvnot (ite (|s298#1| state) #b1 #b0))) 
(define-fun |s298#45| ((state |s298_s|)) (_ BitVec 1) (bvand (|s298#43| state) (|s298#44| state))) 
(define-fun |s298#46| ((state |s298_s|)) (_ BitVec 1) (bvnot (|s298#45| state))) 
(define-fun |s298#47| ((state |s298_s|)) (_ BitVec 1) (bvor (|s298#37| state) (|s298#46| state))) 
(define-fun |s298#48| ((state |s298_s|)) (_ BitVec 1) (bvnot (|s298#47| state))) 
(define-fun |s298#49| ((state |s298_s|)) (_ BitVec 1) (bvnot (ite (|s298#9| state) #b1 #b0))) 
(define-fun |s298#50| ((state |s298_s|)) (_ BitVec 1) (bvand (|s298#49| state) (ite (|s298#17| state) #b1 #b0))) 
(define-fun |s298#51| ((state |s298_s|)) (_ BitVec 1) (bvnot (ite (|s298#18| state) #b1 #b0))) 
(define-fun |s298#52| ((state |s298_s|)) (_ BitVec 1) (bvand (|s298#51| state) (ite (|s298#17| state) #b1 #b0))) 
(define-fun |s298#53| ((state |s298_s|)) (_ BitVec 1) (bvor (|s298#50| state) (|s298#52| state))) 
(define-fun |s298#54| ((state |s298_s|)) (_ BitVec 1) (bvor (ite (|s298#13| state) #b1 #b0) (ite (|s298#16| state) #b1 #b0))) 
(define-fun |s298#55| ((state |s298_s|)) (_ BitVec 1) (bvor (|s298#54| state) (ite (|s298#17| state) #b1 #b0))) 
(define-fun |s298#56| ((state |s298_s|)) (_ BitVec 1) (bvor (|s298#55| state) (|s298#51| state))) 
(define-fun |s298#57| ((state |s298_s|)) (_ BitVec 1) (bvor (|s298#28| state) (|s298#25| state))) 
(define-fun |s298#58| ((state |s298_s|)) (_ BitVec 1) (bvor (|s298#57| state) (ite (|s298#18| state) #b1 #b0))) 
(define-fun |s298#59| ((state |s298_s|)) (_ BitVec 1) (bvand (|s298#56| state) (|s298#58| state))) 
(define-fun |s298#60| ((state |s298_s|)) (_ BitVec 1) (bvor (|s298#25| state) (|s298#51| state))) 
(define-fun |s298#61| ((state |s298_s|)) (_ BitVec 1) (bvor (|s298#60| state) (ite (|s298#9| state) #b1 #b0))) 
(define-fun |s298#62| ((state |s298_s|)) (_ BitVec 1) (bvand (|s298#59| state) (|s298#61| state))) 
(define-fun |s298#63| ((state |s298_s|)) (_ BitVec 1) (bvand (|s298#25| state) (ite (|s298#13| state) #b1 #b0))) 
(define-fun |s298#64| ((state |s298_s|)) (_ BitVec 1) (bvnot (ite (|s298#14| state) #b1 #b0))) 
(define-fun |s298#65| ((state |s298_s|)) (_ BitVec 1) (bvand (|s298#63| state) (|s298#64| state))) 
(define-fun |s298#66| ((state |s298_s|)) (_ BitVec 1) (bvor (ite (|s298#18| state) #b1 #b0) (|s298#33| state))) 
(define-fun |s298#67| ((state |s298_s|)) (_ BitVec 1) (bvnot (|s298#66| state))) 
(define-fun |s298#68| ((state |s298_s|)) (_ BitVec 1) (bvand (|s298#65| state) (|s298#67| state))) 
(define-fun |s298#69| ((state |s298_s|)) (_ BitVec 1) (bvnot (ite (|s298#19| state) #b1 #b0))) 
(define-fun |s298#70| ((state |s298_s|)) (_ BitVec 1) (bvand (|s298#29| state) (ite (|s298#14| state) #b1 #b0))) 
(define-fun |s298#71| ((state |s298_s|)) (_ BitVec 1) (bvand (|s298#70| state) (|s298#67| state))) 
(define-fun |s298#72| ((state |s298_s|)) (_ BitVec 1) (bvnot (|s298#71| state))) 
(define-fun |s298#73| ((state |s298_s|)) (_ BitVec 1) (bvand (|s298#69| state) (|s298#72| state))) 
(define-fun |s298#74| ((state |s298_s|)) (_ BitVec 1) (bvor (|s298#68| state) (|s298#73| state))) 
(define-fun |s298#75| ((state |s298_s|)) (_ BitVec 1) (bvand (|s298#62| state) (|s298#74| state))) 
(define-fun |s298#76| ((state |s298_s|)) (_ BitVec 1) (bvnot (|s298#75| state))) 
(define-fun |s298#77| ((state |s298_s|)) (_ BitVec 1) (bvor (|s298#53| state) (|s298#76| state))) 
(define-fun |s298#78| ((state |s298_s|)) (_ BitVec 1) (bvnot (|s298#77| state))) 
(define-fun |s298#79| ((state |s298_s|)) (_ BitVec 1) (bvnot (ite (|s298#3| state) #b1 #b0))) 
(define-fun |s298#80| ((state |s298_s|)) (_ BitVec 1) (bvand (|s298#79| state) (ite (|s298#18| state) #b1 #b0))) 
(define-fun |s298#81| ((state |s298_s|)) (_ BitVec 1) (bvand (|s298#80| state) (ite (|s298#16| state) #b1 #b0))) 
(define-fun |s298#82| ((state |s298_s|)) (_ BitVec 1) (bvor (|s298#33| state) (ite (|s298#3| state) #b1 #b0))) 
(define-fun |s298#83| ((state |s298_s|)) (_ BitVec 1) (bvand (|s298#56| state) (|s298#82| state))) 
(define-fun |s298#84| ((state |s298_s|)) (_ BitVec 1) (bvand (|s298#83| state) (|s298#66| state))) 
(define-fun |s298#85| ((state |s298_s|)) (_ BitVec 1) (bvand (|s298#84| state) (|s298#74| state))) 
(define-fun |s298#86| ((state |s298_s|)) (_ BitVec 1) (bvnot (|s298#85| state))) 
(define-fun |s298#87| ((state |s298_s|)) (_ BitVec 1) (bvor (|s298#81| state) (|s298#86| state))) 
(define-fun |s298#88| ((state |s298_s|)) (_ BitVec 1) (bvnot (|s298#87| state))) 
(define-fun |s298#89| ((state |s298_s|)) (_ BitVec 1) (bvor (|s298#28| state) (ite (|s298#16| state) #b1 #b0))) 
(define-fun |s298#90| ((state |s298_s|)) (_ BitVec 1) (bvor (|s298#89| state) (ite (|s298#17| state) #b1 #b0))) 
(define-fun |s298#91| ((state |s298_s|)) (_ BitVec 1) (bvor (|s298#25| state) (ite (|s298#5| state) #b1 #b0))) 
(define-fun |s298#92| ((state |s298_s|)) (_ BitVec 1) (bvand (|s298#90| state) (|s298#91| state))) 
(define-fun |s298#93| ((state |s298_s|)) (_ BitVec 1) (bvor (|s298#33| state) (ite (|s298#5| state) #b1 #b0))) 
(define-fun |s298#94| ((state |s298_s|)) (_ BitVec 1) (bvand (|s298#92| state) (|s298#93| state))) 
(define-fun |s298#95| ((state |s298_s|)) (_ BitVec 1) (bvand (|s298#94| state) (ite (|s298#18| state) #b1 #b0))) 
(define-fun |s298#96| ((state |s298_s|)) (_ BitVec 1) (bvnot (|s298#95| state))) 
(define-fun |s298#97| ((state |s298_s|)) (_ BitVec 1) (bvand (|s298#74| state) (|s298#96| state))) 
(define-fun |s298#98| ((state |s298_s|)) (_ BitVec 1) (bvnot (|s298#74| state))) 
(define-fun |s298#99| ((state |s298_s|)) (_ BitVec 1) (bvand (ite (|s298#12| state) #b1 #b0) (|s298#98| state))) 
(define-fun |s298#100| ((state |s298_s|)) (_ BitVec 1) (bvor (|s298#97| state) (|s298#99| state))) 
(define-fun |s298#101| ((state |s298_s|)) (_ BitVec 1) (bvnot (|s298#100| state))) 
(define-fun |s298#102| ((state |s298_s|)) (_ BitVec 1) (bvnot (ite (|s298#6| state) #b1 #b0))) 
(define-fun |s298#103| ((state |s298_s|)) (_ BitVec 1) (bvand (|s298#102| state) (ite (|s298#18| state) #b1 #b0))) 
(define-fun |s298#104| ((state |s298_s|)) (_ BitVec 1) (bvor (ite (|s298#13| state) #b1 #b0) (ite (|s298#18| state) #b1 #b0))) 
(define-fun |s298#105| ((state |s298_s|)) (_ BitVec 1) (bvand (|s298#66| state) (|s298#104| state))) 
(define-fun |s298#106| ((state |s298_s|)) (_ BitVec 1) (bvor (ite (|s298#16| state) #b1 #b0) (ite (|s298#17| state) #b1 #b0))) 
(define-fun |s298#107| ((state |s298_s|)) (_ BitVec 1) (bvand (|s298#105| state) (|s298#106| state))) 
(define-fun |s298#108| ((state |s298_s|)) (_ BitVec 1) (bvand (|s298#107| state) (|s298#74| state))) 
(define-fun |s298#109| ((state |s298_s|)) (_ BitVec 1) (bvnot (|s298#108| state))) 
(define-fun |s298#110| ((state |s298_s|)) (_ BitVec 1) (bvor (|s298#103| state) (|s298#109| state))) 
(define-fun |s298#111| ((state |s298_s|)) (_ BitVec 1) (bvnot (|s298#110| state))) 
(define-fun |s298#112| ((state |s298_s|)) (_ BitVec 1) (bvnot (ite (|s298#7| state) #b1 #b0))) 
(define-fun |s298#113| ((state |s298_s|)) (_ BitVec 1) (bvand (|s298#112| state) (|s298#64| state))) 
(define-fun |s298#114| ((state |s298_s|)) (_ BitVec 1) (bvand (ite (|s298#7| state) #b1 #b0) (ite (|s298#14| state) #b1 #b0))) 
(define-fun |s298#115| ((state |s298_s|)) (_ BitVec 1) (bvor (|s298#113| state) (|s298#114| state))) 
(define-fun |s298#116| ((state |s298_s|)) (_ BitVec 1) (bvor (|s298#115| state) (ite (|s298#1| state) #b1 #b0))) 
(define-fun |s298#117| ((state |s298_s|)) (_ BitVec 1) (bvnot (|s298#116| state))) 
(define-fun |s298#118| ((state |s298_s|)) (_ BitVec 1) (bvnot (ite (|s298#2| state) #b1 #b0))) 
(define-fun |s298#119| ((state |s298_s|)) (_ BitVec 1) (bvnot (ite (|s298#15| state) #b1 #b0))) 
(define-fun |s298#120| ((state |s298_s|)) (_ BitVec 1) (bvand (|s298#118| state) (|s298#119| state))) 
(define-fun |s298#121| ((state |s298_s|)) (_ BitVec 1) (bvand (ite (|s298#2| state) #b1 #b0) (ite (|s298#15| state) #b1 #b0))) 
(define-fun |s298#122| ((state |s298_s|)) (_ BitVec 1) (bvor (|s298#120| state) (|s298#121| state))) 
(define-fun |s298#123| ((state |s298_s|)) (_ BitVec 1) (bvor (|s298#122| state) (ite (|s298#1| state) #b1 #b0))) 
(define-fun |s298#124| ((state |s298_s|)) (_ BitVec 1) (bvnot (|s298#123| state))) 
(define-fun |s298#125| ((state |s298_s|)) (_ BitVec 1) (bvand (|s298#29| state) (ite (|s298#12| state) #b1 #b0))) 
(define-fun |s298#126| ((state |s298_s|)) (_ BitVec 1) (bvor (|s298#51| state) (|s298#33| state))) 
(define-fun |s298#127| ((state |s298_s|)) (_ BitVec 1) (bvnot (|s298#126| state))) 
(define-fun |s298#128| ((state |s298_s|)) (_ BitVec 1) (bvand (|s298#125| state) (|s298#127| state))) 
(define-fun |s298#129| ((state |s298_s|)) (_ BitVec 1) (bvand (|s298#51| state) (|s298#119| state))) 
(define-fun |s298#130| ((state |s298_s|)) (_ BitVec 1) (bvand (ite (|s298#17| state) #b1 #b0) (|s298#25| state))) 
(define-fun |s298#131| ((state |s298_s|)) (_ BitVec 1) (bvand (|s298#130| state) (|s298#28| state))) 
(define-fun |s298#132| ((state |s298_s|)) (_ BitVec 1) (bvand (|s298#131| state) (ite (|s298#12| state) #b1 #b0))) 
(define-fun |s298#133| ((state |s298_s|)) (_ BitVec 1) (bvnot (|s298#132| state))) 
(define-fun |s298#134| ((state |s298_s|)) (_ BitVec 1) (bvand (|s298#129| state) (|s298#133| state))) 
(define-fun |s298#135| ((state |s298_s|)) (_ BitVec 1) (bvor (|s298#128| state) (|s298#134| state))) 
(define-fun |s298#136| ((state |s298_s|)) (_ BitVec 1) (bvand (|s298#44| state) (|s298#51| state))) 
(define-fun |s298#137| ((state |s298_s|)) (_ BitVec 1) (bvand (|s298#119| state) (|s298#44| state))) 
(define-fun |s298#138| ((state |s298_s|)) (_ BitVec 1) (bvor (|s298#136| state) (|s298#137| state))) 
(define-fun |s298#139| ((state |s298_s|)) (_ BitVec 1) (bvnot (|s298#138| state))) 
(define-fun |s298#140| ((state |s298_s|)) (_ BitVec 1) (bvor (|s298#135| state) (|s298#139| state))) 
(define-fun |s298#141| ((state |s298_s|)) (_ BitVec 1) (bvnot (|s298#140| state))) 
(define-fun |s298#142| ((state |s298_s|)) (_ BitVec 1) (bvand (|s298#33| state) (|s298#74| state))) 
(define-fun |s298#143| ((state |s298_s|)) (_ BitVec 1) (bvand (ite (|s298#16| state) #b1 #b0) (ite (|s298#18| state) #b1 #b0))) 
(define-fun |s298#144| ((state |s298_s|)) (_ BitVec 1) (bvand (|s298#143| state) (ite (|s298#4| state) #b1 #b0))) 
(define-fun |s298#145| ((state |s298_s|)) (_ BitVec 1) (bvand (|s298#29| state) (ite (|s298#18| state) #b1 #b0))) 
(define-fun |s298#146| ((state |s298_s|)) (_ BitVec 1) (bvor (|s298#144| state) (|s298#145| state))) 
(define-fun |s298#147| ((state |s298_s|)) (_ BitVec 1) (bvnot (|s298#146| state))) 
(define-fun |s298#148| ((state |s298_s|)) (_ BitVec 1) (bvand (|s298#142| state) (|s298#147| state))) 
(define-fun |s298#149| ((state |s298_s|)) (_ BitVec 1) (bvor (|s298#98| state) (|s298#33| state))) 
(define-fun |s298#150| ((state |s298_s|)) (_ BitVec 1) (bvor (|s298#149| state) (|s298#51| state))) 
(define-fun |s298#151| ((state |s298_s|)) (_ BitVec 1) (bvor (|s298#150| state) (ite (|s298#4| state) #b1 #b0))) 
(define-fun |s298#152| ((state |s298_s|)) (_ BitVec 1) (bvor (|s298#74| state) (|s298#24| state))) 
(define-fun |s298#153| ((state |s298_s|)) (_ BitVec 1) (bvand (|s298#151| state) (|s298#152| state))) 
(define-fun |s298#154| ((state |s298_s|)) (_ BitVec 1) (bvnot (|s298#153| state))) 
(define-fun |s298#155| ((state |s298_s|)) (_ BitVec 1) (bvor (|s298#148| state) (|s298#154| state))) 
(define-fun |s298#156| ((state |s298_s|)) (_ BitVec 1) (bvnot (|s298#155| state))) 
(define-fun |s298#157| ((state |s298_s|)) (_ BitVec 1) (bvor (|s298#74| state) (ite (|s298#1| state) #b1 #b0))) 
(define-fun |s298#158| ((state |s298_s|)) (_ BitVec 1) (bvnot (|s298#157| state))) 
(define-fun |s298#159| ((state |s298_s|)) (_ BitVec 1) (bvnot (ite (|s298#8| state) #b1 #b0))) 
(define-fun |s298#160| ((state |s298_s|)) (_ BitVec 1) (bvand (ite (|s298#18| state) #b1 #b0) (|s298#159| state))) 
(define-fun |s298#161| ((state |s298_s|)) (_ BitVec 1) (bvand (|s298#33| state) (|s298#51| state))) 
(define-fun |s298#162| ((state |s298_s|)) (_ BitVec 1) (bvor (|s298#160| state) (|s298#161| state))) 
(define-fun |s298#163| ((state |s298_s|)) (_ BitVec 1) (bvand (|s298#25| state) (|s298#33| state))) 
(define-fun |s298#164| ((state |s298_s|)) (_ BitVec 1) (bvor (|s298#162| state) (|s298#163| state))) 
(define-fun |s298#165| ((state |s298_s|)) (_ BitVec 1) (bvor (|s298#164| state) (|s298#98| state))) 
(define-fun |s298#166| ((state |s298_s|)) (_ BitVec 1) (bvnot (|s298#165| state))) 
(define-fun |s298#167| ((state |s298_s|)) (_ BitVec 1) (bvand (ite (|s298#12| state) #b1 #b0) (|s298#25| state))) 
(define-fun |s298#168| ((state |s298_s|)) (_ BitVec 1) (bvand (|s298#167| state) (ite (|s298#17| state) #b1 #b0))) 
(define-fun |s298#169| ((state |s298_s|)) (_ BitVec 1) (bvor (|s298#168| state) (|s298#22| state))) 
(define-fun |s298#170| ((state |s298_s|)) (_ BitVec 1) (bvand (|s298#24| state) (|s298#28| state))) 
(define-fun |s298#171| ((state |s298_s|)) (_ BitVec 1) (bvor (|s298#169| state) (|s298#170| state))) 
(define-fun |s298#172| ((state |s298_s|)) (_ BitVec 1) (bvor (|s298#171| state) (ite (|s298#1| state) #b1 #b0))) 
(define-fun |s298#173| ((state |s298_s|)) (_ BitVec 1) (bvnot (|s298#172| state))) 
(define-fun |s298_a| ((state |s298_s|)) Bool (and
  (|dff_a| (|s298_h DFF_0| state))
  (|dff_a| (|s298_h DFF_2| state))
  (|dff_a| (|s298_h DFF_3| state))
  (|dff_a| (|s298_h DFF_7| state))
  (|dff_a| (|s298_h DFF_8| state))
  (|dff_a| (|s298_h DFF_10| state))
  (|dff_a| (|s298_h DFF_11| state))
  (|dff_a| (|s298_h DFF_12| state))
  (|dff_a| (|s298_h DFF_13| state))
  (|dff_a| (|s298_h DFF_4| state))
  (|dff_a| (|s298_h DFF_9| state))
  (|dff_a| (|s298_h DFF_5| state))
  (|dff_a| (|s298_h DFF_6| state))
  (|dff_a| (|s298_h DFF_1| state))
))
(define-fun |s298_u| ((state |s298_s|)) Bool (and
  (|dff_u| (|s298_h DFF_0| state))
  (|dff_u| (|s298_h DFF_2| state))
  (|dff_u| (|s298_h DFF_3| state))
  (|dff_u| (|s298_h DFF_7| state))
  (|dff_u| (|s298_h DFF_8| state))
  (|dff_u| (|s298_h DFF_10| state))
  (|dff_u| (|s298_h DFF_11| state))
  (|dff_u| (|s298_h DFF_12| state))
  (|dff_u| (|s298_h DFF_13| state))
  (|dff_u| (|s298_h DFF_4| state))
  (|dff_u| (|s298_h DFF_9| state))
  (|dff_u| (|s298_h DFF_5| state))
  (|dff_u| (|s298_h DFF_6| state))
  (|dff_u| (|s298_h DFF_1| state))
))
(define-fun |s298_i| ((state |s298_s|)) Bool (and
  (|dff_i| (|s298_h DFF_0| state))
  (|dff_i| (|s298_h DFF_2| state))
  (|dff_i| (|s298_h DFF_3| state))
  (|dff_i| (|s298_h DFF_7| state))
  (|dff_i| (|s298_h DFF_8| state))
  (|dff_i| (|s298_h DFF_10| state))
  (|dff_i| (|s298_h DFF_11| state))
  (|dff_i| (|s298_h DFF_12| state))
  (|dff_i| (|s298_h DFF_13| state))
  (|dff_i| (|s298_h DFF_4| state))
  (|dff_i| (|s298_h DFF_9| state))
  (|dff_i| (|s298_h DFF_5| state))
  (|dff_i| (|s298_h DFF_6| state))
  (|dff_i| (|s298_h DFF_1| state))
))
(define-fun |s298_h| ((state |s298_s|)) Bool (and
  (= (|s298_is| state) (|dff_is| (|s298_h DFF_0| state)))
  (= (|s298#0| state) (|dff_n CK| (|s298_h DFF_0| state))) 
  (= (= ((_ extract 0 0) (|s298#21| state)) #b1) (|dff_n D| (|s298_h DFF_0| state))) 
  (= (|s298#12| state) (|dff_n Q| (|s298_h DFF_0| state))) 
  (= (|s298_is| state) (|dff_is| (|s298_h DFF_2| state)))
  (= (|s298#0| state) (|dff_n CK| (|s298_h DFF_2| state))) 
  (= (= ((_ extract 0 0) (|s298#32| state)) #b1) (|dff_n D| (|s298_h DFF_2| state))) 
  (= (|s298#16| state) (|dff_n Q| (|s298_h DFF_2| state))) 
  (= (|s298_is| state) (|dff_is| (|s298_h DFF_3| state)))
  (= (|s298#0| state) (|dff_n CK| (|s298_h DFF_3| state))) 
  (= (= ((_ extract 0 0) (|s298#48| state)) #b1) (|dff_n D| (|s298_h DFF_3| state))) 
  (= (|s298#17| state) (|dff_n Q| (|s298_h DFF_3| state))) 
  (= (|s298_is| state) (|dff_is| (|s298_h DFF_7| state)))
  (= (|s298#0| state) (|dff_n CK| (|s298_h DFF_7| state))) 
  (= (= ((_ extract 0 0) (|s298#78| state)) #b1) (|dff_n D| (|s298_h DFF_7| state))) 
  (= (|s298#9| state) (|dff_n Q| (|s298_h DFF_7| state))) 
  (= (|s298_is| state) (|dff_is| (|s298_h DFF_8| state)))
  (= (|s298#0| state) (|dff_n CK| (|s298_h DFF_8| state))) 
  (= (= ((_ extract 0 0) (|s298#88| state)) #b1) (|dff_n D| (|s298_h DFF_8| state))) 
  (= (|s298#3| state) (|dff_n Q| (|s298_h DFF_8| state))) 
  (= (|s298_is| state) (|dff_is| (|s298_h DFF_10| state)))
  (= (|s298#0| state) (|dff_n CK| (|s298_h DFF_10| state))) 
  (= (= ((_ extract 0 0) (|s298#101| state)) #b1) (|dff_n D| (|s298_h DFF_10| state))) 
  (= (|s298#5| state) (|dff_n Q| (|s298_h DFF_10| state))) 
  (= (|s298_is| state) (|dff_is| (|s298_h DFF_11| state)))
  (= (|s298#0| state) (|dff_n CK| (|s298_h DFF_11| state))) 
  (= (= ((_ extract 0 0) (|s298#111| state)) #b1) (|dff_n D| (|s298_h DFF_11| state))) 
  (= (|s298#6| state) (|dff_n Q| (|s298_h DFF_11| state))) 
  (= (|s298_is| state) (|dff_is| (|s298_h DFF_12| state)))
  (= (|s298#0| state) (|dff_n CK| (|s298_h DFF_12| state))) 
  (= (= ((_ extract 0 0) (|s298#117| state)) #b1) (|dff_n D| (|s298_h DFF_12| state))) 
  (= (|s298#14| state) (|dff_n Q| (|s298_h DFF_12| state))) 
  (= (|s298_is| state) (|dff_is| (|s298_h DFF_13| state)))
  (= (|s298#0| state) (|dff_n CK| (|s298_h DFF_13| state))) 
  (= (= ((_ extract 0 0) (|s298#124| state)) #b1) (|dff_n D| (|s298_h DFF_13| state))) 
  (= (|s298#15| state) (|dff_n Q| (|s298_h DFF_13| state))) 
  (= (|s298_is| state) (|dff_is| (|s298_h DFF_4| state)))
  (= (|s298#0| state) (|dff_n CK| (|s298_h DFF_4| state))) 
  (= (= ((_ extract 0 0) (|s298#141| state)) #b1) (|dff_n D| (|s298_h DFF_4| state))) 
  (= (|s298#18| state) (|dff_n Q| (|s298_h DFF_4| state))) 
  (= (|s298_is| state) (|dff_is| (|s298_h DFF_9| state)))
  (= (|s298#0| state) (|dff_n CK| (|s298_h DFF_9| state))) 
  (= (= ((_ extract 0 0) (|s298#156| state)) #b1) (|dff_n D| (|s298_h DFF_9| state))) 
  (= (|s298#4| state) (|dff_n Q| (|s298_h DFF_9| state))) 
  (= (|s298_is| state) (|dff_is| (|s298_h DFF_5| state)))
  (= (|s298#0| state) (|dff_n CK| (|s298_h DFF_5| state))) 
  (= (= ((_ extract 0 0) (|s298#158| state)) #b1) (|dff_n D| (|s298_h DFF_5| state))) 
  (= (|s298#19| state) (|dff_n Q| (|s298_h DFF_5| state))) 
  (= (|s298_is| state) (|dff_is| (|s298_h DFF_6| state)))
  (= (|s298#0| state) (|dff_n CK| (|s298_h DFF_6| state))) 
  (= (= ((_ extract 0 0) (|s298#166| state)) #b1) (|dff_n D| (|s298_h DFF_6| state))) 
  (= (|s298#8| state) (|dff_n Q| (|s298_h DFF_6| state))) 
  (= (|s298_is| state) (|dff_is| (|s298_h DFF_1| state)))
  (= (|s298#0| state) (|dff_n CK| (|s298_h DFF_1| state))) 
  (= (= ((_ extract 0 0) (|s298#173| state)) #b1) (|dff_n D| (|s298_h DFF_1| state))) 
  (= (|s298#13| state) (|dff_n Q| (|s298_h DFF_1| state))) 
  (|dff_h| (|s298_h DFF_0| state))
  (|dff_h| (|s298_h DFF_2| state))
  (|dff_h| (|s298_h DFF_3| state))
  (|dff_h| (|s298_h DFF_7| state))
  (|dff_h| (|s298_h DFF_8| state))
  (|dff_h| (|s298_h DFF_10| state))
  (|dff_h| (|s298_h DFF_11| state))
  (|dff_h| (|s298_h DFF_12| state))
  (|dff_h| (|s298_h DFF_13| state))
  (|dff_h| (|s298_h DFF_4| state))
  (|dff_h| (|s298_h DFF_9| state))
  (|dff_h| (|s298_h DFF_5| state))
  (|dff_h| (|s298_h DFF_6| state))
  (|dff_h| (|s298_h DFF_1| state))
))
(define-fun |s298_t| ((state |s298_s|) (next_state |s298_s|)) Bool (and
  (|dff_t| (|s298_h DFF_0| state) (|s298_h DFF_0| next_state))
  (|dff_t| (|s298_h DFF_2| state) (|s298_h DFF_2| next_state))
  (|dff_t| (|s298_h DFF_3| state) (|s298_h DFF_3| next_state))
  (|dff_t| (|s298_h DFF_7| state) (|s298_h DFF_7| next_state))
  (|dff_t| (|s298_h DFF_8| state) (|s298_h DFF_8| next_state))
  (|dff_t| (|s298_h DFF_10| state) (|s298_h DFF_10| next_state))
  (|dff_t| (|s298_h DFF_11| state) (|s298_h DFF_11| next_state))
  (|dff_t| (|s298_h DFF_12| state) (|s298_h DFF_12| next_state))
  (|dff_t| (|s298_h DFF_13| state) (|s298_h DFF_13| next_state))
  (|dff_t| (|s298_h DFF_4| state) (|s298_h DFF_4| next_state))
  (|dff_t| (|s298_h DFF_9| state) (|s298_h DFF_9| next_state))
  (|dff_t| (|s298_h DFF_5| state) (|s298_h DFF_5| next_state))
  (|dff_t| (|s298_h DFF_6| state) (|s298_h DFF_6| next_state))
  (|dff_t| (|s298_h DFF_1| state) (|s298_h DFF_1| next_state))
)) 

